nN = 10;
nR = 40;
nH = 2;

a = [[20, 16, 15, 25, 15, 16, 17, 20, 22, 21, 22, 18, 16, 21, 24, 19, 23, 15, 20, 22, 23, 22, 16, 23, 19, 17, 20, 25, 21, 16, 15, 17, 17, 17, 19, 16, 20, 16, 22, 17], [16, 20, 19, 23, 23, 18, 21, 19, 22, 17, 16, 20, 25, 17, 18, 18, 19, 15, 20, 23, 15, 24, 24, 23, 22, 18, 15, 21, 17, 24, 18, 17, 22, 23, 21, 15, 17, 16, 24, 15], [24, 22, 15, 20, 22, 20, 24, 17, 16, 18, 18, 22, 24, 25, 20, 18, 17, 15, 17, 19, 23, 22, 20, 23, 24, 18, 20, 21, 23, 23, 20, 23, 22, 16, 25, 15, 24, 20, 16, 23], [23, 23, 25, 23, 19, 21, 15, 25, 20, 21, 18, 15, 17, 21, 24, 23, 21, 16, 18, 24, 18, 16, 23, 25, 20, 16, 25, 15, 19, 23, 25, 22, 17, 25, 24, 17, 18, 17, 21, 20], [25, 21, 21, 20, 22, 15, 16, 17, 17, 20, 20, 22, 22, 22, 17, 18, 18, 20, 22, 19, 18, 17, 25, 25, 21, 15, 18, 22, 18, 16, 15, 25, 17, 23, 18, 22, 17, 24, 22, 25], [21, 22, 18, 25, 21, 15, 20, 20, 21, 17, 22, 15, 18, 16, 18, 24, 21, 18, 21, 22, 23, 17, 25, 21, 17, 24, 21, 20, 22, 15, 21, 20, 24, 22, 22, 21, 22, 16, 24, 20], [19, 18, 20, 19, 20, 20, 25, 19, 20, 23, 17, 16, 19, 24, 17, 23, 24, 17, 22, 23, 16, 22, 21, 15, 17, 19, 17, 15, 19, 25, 15, 22, 16, 23, 21, 24, 16, 24, 24, 24], [21, 21, 21, 25, 18, 25, 23, 21, 25, 17, 19, 25, 20, 25, 15, 17, 20, 23, 21, 15, 24, 20, 15, 22, 24, 15, 21, 21, 25, 25, 19, 22, 22, 16, 16, 19, 18, 21, 15, 25], [25, 18, 22, 19, 19, 18, 17, 19, 21, 17, 16, 24, 23, 25, 17, 16, 24, 19, 20, 17, 23, 19, 20, 23, 18, 18, 25, 23, 18, 19, 23, 25, 23, 24, 22, 16, 25, 23, 19, 22], [15, 25, 23, 21, 21, 21, 19, 24, 23, 21, 20, 16, 25, 19, 20, 17, 23, 22, 20, 19, 16, 18, 19, 17, 25, 17, 16, 24, 24, 20, 21, 25, 16, 23, 16, 19, 24, 17, 17, 18]];
c = [[[0, 0, 0, 0, 0, 0, 0, 0, 0, 0, 0, 0, 0, 0, 0, 0, 0, 0, 0, 0, 0, 0, 0, 0, 0, 0, 0, 0, 0, 0, 0, 0, 0, 0, 0, 0, 0, 0, 0, 0], [30, 38, 31, 42, 42, 42, 40, 46, 38, 43, 34, 39, 30, 37, 50, 34, 36, 43, 40, 36, 47, 35, 30, 39, 47, 38, 41, 33, 32, 31, 31, 42, 40, 38, 33, 38, 39, 37, 49, 46], [49, 47, 32, 50, 37, 50, 47, 35, 50, 41, 34, 42, 50, 48, 38, 33, 42, 32, 42, 37, 40, 50, 41, 49, 45, 31, 44, 40, 42, 45, 40, 49, 33, 38, 34, 36, 43, 30, 33, 35], [37, 46, 33, 32, 44, 41, 40, 41, 38, 38, 43, 48, 43, 41, 43, 32, 47, 45, 44, 32, 44, 43, 50, 42, 31, 48, 35, 32, 33, 30, 43, 42, 34, 37, 30, 38, 32, 45, 34, 43], [39, 47, 47, 44, 44, 50, 31, 31, 43, 39, 40, 42, 35, 35, 39, 35, 48, 43, 37, 32, 33, 49, 40, 38, 35, 39, 45, 35, 36, 30, 34, 30, 40, 49, 49, 35, 33, 31, 44, 49], [33, 38, 30, 43, 40, 30, 37, 32, 45, 42, 35, 44, 31, 34, 45, 43, 40, 31, 45, 32, 50, 32, 43, 45, 41, 36, 38, 45, 45, 36, 46, 49, 34, 40, 32, 46, 35, 45, 31, 33], [31, 38, 49, 38, 37, 35, 33, 38, 43, 32, 36, 33, 31, 30, 44, 39, 42, 50, 44, 43, 33, 48, 32, 34, 37, 49, 30, 40, 36, 44, 33, 33, 44, 38, 43, 42, 39, 44, 30, 48], [34, 36, 39, 42, 31, 33, 44, 47, 38, 40, 45, 48, 36, 46, 37, 41, 33, 30, 47, 35, 46, 41, 34, 39, 38, 35, 33, 50, 48, 40, 43, 44, 37, 47, 33, 44, 39, 41, 39, 38], [36, 42, 50, 50, 48, 40, 37, 50, 30, 41, 50, 30, 43, 40, 31, 30, 37, 48, 38, 40, 43, 37, 40, 41, 39, 41, 45, 39, 45, 50, 34, 41, 48, 34, 41, 35, 31, 47, 37, 37], [31, 50, 33, 46, 31, 43, 49, 32, 36, 38, 35, 37, 40, 31, 50, 45, 37, 43, 33, 44, 42, 43, 47, 32, 31, 42, 38, 36, 47, 44, 40, 31, 38, 47, 47, 42, 39, 46, 45, 36]], [[0, 0, 0, 0, 0, 0, 0, 0, 0, 0, 0, 0, 0, 0, 0, 0, 0, 0, 0, 0, 0, 0, 0, 0, 0, 0, 0, 0, 0, 0, 0, 0, 0, 0, 0, 0, 0, 0, 0, 0], [0, 0, 0, 0, 0, 0, 0, 0, 0, 0, 0, 0, 0, 0, 0, 0, 0, 0, 0, 0, 0, 0, 0, 0, 0, 0, 0, 0, 0, 0, 0, 0, 0, 0, 0, 0, 0, 0, 0, 0], [50, 35, 40, 40, 42, 46, 31, 48, 40, 32, 31, 43, 31, 45, 41, 38, 44, 49, 40, 50, 39, 50, 45, 38, 33, 47, 46, 32, 48, 47, 40, 42, 37, 41, 46, 47, 34, 32, 46, 30], [32, 49, 37, 49, 43, 42, 50, 39, 49, 50, 43, 33, 42, 33, 30, 50, 31, 36, 36, 47, 47, 44, 32, 38, 37, 44, 44, 47, 46, 46, 37, 39, 38, 50, 46, 33, 50, 46, 46, 45], [45, 33, 31, 30, 47, 44, 42, 32, 45, 48, 45, 50, 41, 48, 47, 42, 39, 50, 49, 33, 46, 48, 50, 48, 49, 39, 46, 36, 39, 44, 34, 47, 42, 50, 44, 45, 34, 43, 47, 46], [39, 31, 39, 38, 37, 35, 39, 48, 33, 42, 48, 40, 43, 42, 45, 38, 34, 48, 36, 33, 40, 31, 43, 41, 33, 38, 40, 50, 50, 50, 32, 45, 42, 41, 49, 30, 32, 40, 35, 42], [31, 39, 32, 38, 30, 48, 48, 43, 36, 46, 36, 43, 31, 44, 44, 32, 39, 45, 35, 45, 39, 42, 42, 41, 30, 33, 37, 37, 35, 35, 50, 48, 48, 47, 36, 35, 50, 40, 34, 40], [34, 44, 34, 47, 31, 34, 46, 46, 50, 39, 37, 37, 41, 41, 45, 40, 44, 40, 32, 39, 36, 38, 45, 34, 38, 49, 48, 36, 30, 37, 40, 33, 45, 43, 46, 45, 50, 34, 33, 31], [49, 45, 36, 41, 38, 38, 44, 33, 49, 48, 50, 31, 33, 36, 36, 31, 43, 39, 31, 30, 30, 34, 44, 41, 48, 37, 48, 46, 39, 30, 34, 30, 39, 42, 30, 45, 32, 50, 50, 44], [39, 41, 35, 38, 37, 46, 39, 45, 42, 43, 50, 30, 33, 32, 47, 36, 50, 35, 37, 49, 31, 44, 37, 37, 38, 30, 32, 43, 38, 38, 50, 31, 49, 41, 47, 37, 48, 41, 37, 42]], [[0, 0, 0, 0, 0, 0, 0, 0, 0, 0, 0, 0, 0, 0, 0, 0, 0, 0, 0, 0, 0, 0, 0, 0, 0, 0, 0, 0, 0, 0, 0, 0, 0, 0, 0, 0, 0, 0, 0, 0], [0, 0, 0, 0, 0, 0, 0, 0, 0, 0, 0, 0, 0, 0, 0, 0, 0, 0, 0, 0, 0, 0, 0, 0, 0, 0, 0, 0, 0, 0, 0, 0, 0, 0, 0, 0, 0, 0, 0, 0], [0, 0, 0, 0, 0, 0, 0, 0, 0, 0, 0, 0, 0, 0, 0, 0, 0, 0, 0, 0, 0, 0, 0, 0, 0, 0, 0, 0, 0, 0, 0, 0, 0, 0, 0, 0, 0, 0, 0, 0], [49, 34, 49, 40, 33, 33, 44, 44, 31, 31, 37, 49, 44, 36, 40, 37, 48, 31, 37, 37, 35, 47, 50, 34, 32, 30, 48, 48, 32, 47, 46, 49, 50, 40, 42, 44, 43, 43, 42, 31], [47, 37, 30, 33, 35, 36, 31, 49, 43, 44, 35, 47, 44, 32, 38, 36, 50, 32, 45, 31, 47, 47, 41, 38, 34, 30, 32, 37, 43, 44, 44, 36, 31, 40, 32, 39, 39, 40, 33, 32], [37, 44, 50, 40, 44, 37, 39, 49, 49, 33, 33, 41, 31, 41, 44, 34, 46, 42, 40, 43, 39, 31, 35, 34, 44, 39, 30, 40, 33, 36, 30, 30, 44, 32, 34, 35, 44, 30, 46, 47], [47, 49, 49, 33, 35, 45, 50, 35, 38, 38, 42, 33, 48, 33, 46, 30, 43, 37, 33, 31, 30, 37, 48, 50, 33, 31, 41, 33, 42, 36, 34, 36, 36, 40, 37, 31, 40, 35, 31, 30], [47, 47, 47, 40, 41, 33, 50, 43, 49, 31, 46, 38, 41, 32, 34, 47, 33, 48, 47, 43, 50, 37, 43, 44, 47, 45, 46, 37, 50, 47, 48, 38, 32, 39, 39, 45, 37, 36, 44, 46], [34, 50, 33, 45, 47, 35, 39, 38, 46, 40, 36, 45, 33, 41, 40, 34, 38, 41, 35, 37, 43, 49, 32, 36, 45, 49, 46, 49, 39, 44, 50, 43, 32, 40, 50, 39, 32, 41, 36, 45], [50, 49, 50, 40, 36, 37, 41, 41, 31, 37, 31, 47, 38, 41, 30, 45, 45, 48, 32, 30, 40, 36, 36, 37, 48, 45, 46, 38, 48, 30, 50, 43, 38, 36, 48, 46, 38, 49, 45, 32]], [[0, 0, 0, 0, 0, 0, 0, 0, 0, 0, 0, 0, 0, 0, 0, 0, 0, 0, 0, 0, 0, 0, 0, 0, 0, 0, 0, 0, 0, 0, 0, 0, 0, 0, 0, 0, 0, 0, 0, 0], [0, 0, 0, 0, 0, 0, 0, 0, 0, 0, 0, 0, 0, 0, 0, 0, 0, 0, 0, 0, 0, 0, 0, 0, 0, 0, 0, 0, 0, 0, 0, 0, 0, 0, 0, 0, 0, 0, 0, 0], [0, 0, 0, 0, 0, 0, 0, 0, 0, 0, 0, 0, 0, 0, 0, 0, 0, 0, 0, 0, 0, 0, 0, 0, 0, 0, 0, 0, 0, 0, 0, 0, 0, 0, 0, 0, 0, 0, 0, 0], [0, 0, 0, 0, 0, 0, 0, 0, 0, 0, 0, 0, 0, 0, 0, 0, 0, 0, 0, 0, 0, 0, 0, 0, 0, 0, 0, 0, 0, 0, 0, 0, 0, 0, 0, 0, 0, 0, 0, 0], [45, 36, 49, 47, 50, 41, 36, 44, 32, 32, 42, 34, 39, 38, 32, 32, 49, 34, 43, 34, 35, 46, 40, 36, 44, 33, 41, 35, 35, 46, 30, 37, 33, 37, 47, 45, 35, 33, 41, 32], [45, 40, 48, 44, 45, 48, 43, 49, 46, 49, 50, 48, 30, 46, 37, 36, 37, 35, 40, 48, 43, 49, 32, 48, 39, 30, 34, 36, 30, 49, 32, 36, 44, 45, 41, 30, 46, 50, 38, 36], [37, 50, 50, 38, 45, 46, 34, 43, 30, 34, 32, 46, 37, 35, 44, 41, 30, 31, 41, 38, 35, 50, 48, 46, 33, 34, 40, 49, 33, 40, 47, 43, 49, 38, 31, 44, 30, 50, 37, 35], [39, 48, 34, 49, 50, 34, 50, 44, 41, 46, 45, 30, 46, 35, 31, 33, 39, 39, 41, 48, 34, 38, 46, 47, 46, 45, 33, 43, 50, 50, 47, 48, 39, 36, 41, 36, 46, 39, 47, 49], [31, 31, 41, 31, 35, 33, 35, 43, 48, 46, 48, 49, 47, 41, 35, 40, 47, 42, 45, 46, 38, 43, 38, 36, 32, 38, 40, 50, 45, 50, 33, 34, 46, 31, 32, 43, 43, 49, 48, 43], [46, 37, 30, 50, 33, 38, 36, 47, 46, 43, 48, 33, 38, 44, 49, 33, 48, 38, 44, 43, 33, 39, 48, 35, 49, 46, 41, 50, 44, 45, 35, 40, 48, 32, 30, 42, 30, 37, 35, 33]], [[0, 0, 0, 0, 0, 0, 0, 0, 0, 0, 0, 0, 0, 0, 0, 0, 0, 0, 0, 0, 0, 0, 0, 0, 0, 0, 0, 0, 0, 0, 0, 0, 0, 0, 0, 0, 0, 0, 0, 0], [0, 0, 0, 0, 0, 0, 0, 0, 0, 0, 0, 0, 0, 0, 0, 0, 0, 0, 0, 0, 0, 0, 0, 0, 0, 0, 0, 0, 0, 0, 0, 0, 0, 0, 0, 0, 0, 0, 0, 0], [0, 0, 0, 0, 0, 0, 0, 0, 0, 0, 0, 0, 0, 0, 0, 0, 0, 0, 0, 0, 0, 0, 0, 0, 0, 0, 0, 0, 0, 0, 0, 0, 0, 0, 0, 0, 0, 0, 0, 0], [0, 0, 0, 0, 0, 0, 0, 0, 0, 0, 0, 0, 0, 0, 0, 0, 0, 0, 0, 0, 0, 0, 0, 0, 0, 0, 0, 0, 0, 0, 0, 0, 0, 0, 0, 0, 0, 0, 0, 0], [0, 0, 0, 0, 0, 0, 0, 0, 0, 0, 0, 0, 0, 0, 0, 0, 0, 0, 0, 0, 0, 0, 0, 0, 0, 0, 0, 0, 0, 0, 0, 0, 0, 0, 0, 0, 0, 0, 0, 0], [46, 36, 35, 47, 32, 37, 38, 42, 37, 36, 37, 37, 42, 40, 41, 39, 43, 35, 32, 42, 38, 34, 31, 50, 32, 43, 38, 44, 49, 47, 31, 35, 32, 40, 38, 33, 48, 44, 31, 45], [48, 43, 49, 37, 49, 31, 44, 44, 40, 33, 35, 42, 49, 30, 41, 33, 37, 36, 44, 37, 39, 41, 45, 45, 43, 32, 36, 43, 46, 36, 34, 49, 37, 47, 50, 33, 37, 41, 45, 49], [50, 38, 48, 41, 45, 41, 50, 42, 31, 46, 37, 30, 30, 34, 31, 37, 45, 50, 47, 33, 46, 40, 30, 44, 43, 46, 34, 49, 50, 33, 42, 47, 45, 42, 38, 37, 49, 32, 32, 31], [43, 37, 42, 33, 46, 32, 41, 35, 44, 43, 44, 49, 43, 43, 46, 39, 34, 48, 39, 41, 32, 40, 36, 42, 33, 35, 42, 36, 39, 39, 32, 44, 30, 40, 36, 30, 50, 39, 44, 37], [38, 35, 30, 49, 46, 50, 33, 31, 47, 30, 33, 41, 37, 32, 33, 44, 33, 42, 35, 32, 43, 47, 34, 46, 38, 45, 36, 40, 35, 43, 33, 45, 45, 47, 47, 43, 33, 40, 32, 43]], [[0, 0, 0, 0, 0, 0, 0, 0, 0, 0, 0, 0, 0, 0, 0, 0, 0, 0, 0, 0, 0, 0, 0, 0, 0, 0, 0, 0, 0, 0, 0, 0, 0, 0, 0, 0, 0, 0, 0, 0], [0, 0, 0, 0, 0, 0, 0, 0, 0, 0, 0, 0, 0, 0, 0, 0, 0, 0, 0, 0, 0, 0, 0, 0, 0, 0, 0, 0, 0, 0, 0, 0, 0, 0, 0, 0, 0, 0, 0, 0], [0, 0, 0, 0, 0, 0, 0, 0, 0, 0, 0, 0, 0, 0, 0, 0, 0, 0, 0, 0, 0, 0, 0, 0, 0, 0, 0, 0, 0, 0, 0, 0, 0, 0, 0, 0, 0, 0, 0, 0], [0, 0, 0, 0, 0, 0, 0, 0, 0, 0, 0, 0, 0, 0, 0, 0, 0, 0, 0, 0, 0, 0, 0, 0, 0, 0, 0, 0, 0, 0, 0, 0, 0, 0, 0, 0, 0, 0, 0, 0], [0, 0, 0, 0, 0, 0, 0, 0, 0, 0, 0, 0, 0, 0, 0, 0, 0, 0, 0, 0, 0, 0, 0, 0, 0, 0, 0, 0, 0, 0, 0, 0, 0, 0, 0, 0, 0, 0, 0, 0], [0, 0, 0, 0, 0, 0, 0, 0, 0, 0, 0, 0, 0, 0, 0, 0, 0, 0, 0, 0, 0, 0, 0, 0, 0, 0, 0, 0, 0, 0, 0, 0, 0, 0, 0, 0, 0, 0, 0, 0], [42, 33, 48, 48, 41, 36, 38, 50, 35, 41, 49, 42, 34, 42, 39, 41, 37, 36, 39, 30, 45, 48, 42, 30, 32, 35, 49, 47, 32, 34, 39, 44, 30, 30, 48, 38, 44, 49, 38, 42], [44, 42, 37, 50, 48, 36, 47, 38, 31, 33, 36, 44, 31, 48, 44, 35, 30, 45, 35, 31, 36, 46, 36, 44, 32, 50, 40, 39, 33, 38, 33, 47, 47, 42, 50, 49, 40, 30, 33, 45], [44, 46, 39, 39, 30, 42, 37, 33, 46, 49, 41, 49, 36, 39, 48, 31, 39, 30, 32, 45, 50, 39, 46, 46, 39, 34, 31, 36, 49, 36, 41, 33, 39, 40, 43, 50, 43, 44, 37, 44], [35, 30, 32, 38, 50, 49, 33, 33, 33, 38, 47, 42, 39, 35, 33, 47, 35, 41, 37, 39, 36, 47, 44, 32, 47, 35, 39, 44, 37, 43, 47, 50, 32, 47, 37, 50, 42, 49, 33, 49]], [[0, 0, 0, 0, 0, 0, 0, 0, 0, 0, 0, 0, 0, 0, 0, 0, 0, 0, 0, 0, 0, 0, 0, 0, 0, 0, 0, 0, 0, 0, 0, 0, 0, 0, 0, 0, 0, 0, 0, 0], [0, 0, 0, 0, 0, 0, 0, 0, 0, 0, 0, 0, 0, 0, 0, 0, 0, 0, 0, 0, 0, 0, 0, 0, 0, 0, 0, 0, 0, 0, 0, 0, 0, 0, 0, 0, 0, 0, 0, 0], [0, 0, 0, 0, 0, 0, 0, 0, 0, 0, 0, 0, 0, 0, 0, 0, 0, 0, 0, 0, 0, 0, 0, 0, 0, 0, 0, 0, 0, 0, 0, 0, 0, 0, 0, 0, 0, 0, 0, 0], [0, 0, 0, 0, 0, 0, 0, 0, 0, 0, 0, 0, 0, 0, 0, 0, 0, 0, 0, 0, 0, 0, 0, 0, 0, 0, 0, 0, 0, 0, 0, 0, 0, 0, 0, 0, 0, 0, 0, 0], [0, 0, 0, 0, 0, 0, 0, 0, 0, 0, 0, 0, 0, 0, 0, 0, 0, 0, 0, 0, 0, 0, 0, 0, 0, 0, 0, 0, 0, 0, 0, 0, 0, 0, 0, 0, 0, 0, 0, 0], [0, 0, 0, 0, 0, 0, 0, 0, 0, 0, 0, 0, 0, 0, 0, 0, 0, 0, 0, 0, 0, 0, 0, 0, 0, 0, 0, 0, 0, 0, 0, 0, 0, 0, 0, 0, 0, 0, 0, 0], [0, 0, 0, 0, 0, 0, 0, 0, 0, 0, 0, 0, 0, 0, 0, 0, 0, 0, 0, 0, 0, 0, 0, 0, 0, 0, 0, 0, 0, 0, 0, 0, 0, 0, 0, 0, 0, 0, 0, 0], [30, 41, 47, 49, 33, 49, 43, 45, 39, 41, 43, 32, 39, 44, 36, 34, 49, 31, 50, 33, 35, 33, 31, 32, 43, 34, 48, 30, 39, 40, 45, 44, 32, 42, 50, 34, 31, 32, 48, 46], [37, 45, 44, 32, 47, 47, 42, 50, 32, 47, 38, 48, 39, 50, 34, 30, 46, 44, 44, 38, 31, 47, 50, 44, 35, 43, 34, 31, 48, 35, 46, 43, 41, 46, 44, 40, 35, 44, 38, 36], [32, 39, 30, 39, 39, 49, 39, 37, 38, 46, 41, 36, 42, 36, 45, 37, 45, 34, 40, 50, 33, 49, 45, 41, 35, 43, 40, 40, 34, 47, 40, 49, 37, 43, 43, 44, 32, 45, 35, 45]], [[0, 0, 0, 0, 0, 0, 0, 0, 0, 0, 0, 0, 0, 0, 0, 0, 0, 0, 0, 0, 0, 0, 0, 0, 0, 0, 0, 0, 0, 0, 0, 0, 0, 0, 0, 0, 0, 0, 0, 0], [0, 0, 0, 0, 0, 0, 0, 0, 0, 0, 0, 0, 0, 0, 0, 0, 0, 0, 0, 0, 0, 0, 0, 0, 0, 0, 0, 0, 0, 0, 0, 0, 0, 0, 0, 0, 0, 0, 0, 0], [0, 0, 0, 0, 0, 0, 0, 0, 0, 0, 0, 0, 0, 0, 0, 0, 0, 0, 0, 0, 0, 0, 0, 0, 0, 0, 0, 0, 0, 0, 0, 0, 0, 0, 0, 0, 0, 0, 0, 0], [0, 0, 0, 0, 0, 0, 0, 0, 0, 0, 0, 0, 0, 0, 0, 0, 0, 0, 0, 0, 0, 0, 0, 0, 0, 0, 0, 0, 0, 0, 0, 0, 0, 0, 0, 0, 0, 0, 0, 0], [0, 0, 0, 0, 0, 0, 0, 0, 0, 0, 0, 0, 0, 0, 0, 0, 0, 0, 0, 0, 0, 0, 0, 0, 0, 0, 0, 0, 0, 0, 0, 0, 0, 0, 0, 0, 0, 0, 0, 0], [0, 0, 0, 0, 0, 0, 0, 0, 0, 0, 0, 0, 0, 0, 0, 0, 0, 0, 0, 0, 0, 0, 0, 0, 0, 0, 0, 0, 0, 0, 0, 0, 0, 0, 0, 0, 0, 0, 0, 0], [0, 0, 0, 0, 0, 0, 0, 0, 0, 0, 0, 0, 0, 0, 0, 0, 0, 0, 0, 0, 0, 0, 0, 0, 0, 0, 0, 0, 0, 0, 0, 0, 0, 0, 0, 0, 0, 0, 0, 0], [0, 0, 0, 0, 0, 0, 0, 0, 0, 0, 0, 0, 0, 0, 0, 0, 0, 0, 0, 0, 0, 0, 0, 0, 0, 0, 0, 0, 0, 0, 0, 0, 0, 0, 0, 0, 0, 0, 0, 0], [50, 42, 39, 35, 49, 44, 49, 49, 34, 33, 48, 44, 35, 49, 47, 41, 31, 33, 49, 33, 47, 32, 35, 49, 34, 37, 41, 38, 39, 36, 39, 43, 31, 43, 48, 49, 34, 38, 49, 32], [50, 37, 46, 40, 46, 44, 46, 35, 42, 46, 41, 43, 42, 33, 32, 46, 35, 34, 31, 46, 32, 42, 41, 36, 32, 37, 34, 47, 47, 35, 31, 34, 47, 33, 40, 43, 44, 37, 35, 44]], [[0, 0, 0, 0, 0, 0, 0, 0, 0, 0, 0, 0, 0, 0, 0, 0, 0, 0, 0, 0, 0, 0, 0, 0, 0, 0, 0, 0, 0, 0, 0, 0, 0, 0, 0, 0, 0, 0, 0, 0], [0, 0, 0, 0, 0, 0, 0, 0, 0, 0, 0, 0, 0, 0, 0, 0, 0, 0, 0, 0, 0, 0, 0, 0, 0, 0, 0, 0, 0, 0, 0, 0, 0, 0, 0, 0, 0, 0, 0, 0], [0, 0, 0, 0, 0, 0, 0, 0, 0, 0, 0, 0, 0, 0, 0, 0, 0, 0, 0, 0, 0, 0, 0, 0, 0, 0, 0, 0, 0, 0, 0, 0, 0, 0, 0, 0, 0, 0, 0, 0], [0, 0, 0, 0, 0, 0, 0, 0, 0, 0, 0, 0, 0, 0, 0, 0, 0, 0, 0, 0, 0, 0, 0, 0, 0, 0, 0, 0, 0, 0, 0, 0, 0, 0, 0, 0, 0, 0, 0, 0], [0, 0, 0, 0, 0, 0, 0, 0, 0, 0, 0, 0, 0, 0, 0, 0, 0, 0, 0, 0, 0, 0, 0, 0, 0, 0, 0, 0, 0, 0, 0, 0, 0, 0, 0, 0, 0, 0, 0, 0], [0, 0, 0, 0, 0, 0, 0, 0, 0, 0, 0, 0, 0, 0, 0, 0, 0, 0, 0, 0, 0, 0, 0, 0, 0, 0, 0, 0, 0, 0, 0, 0, 0, 0, 0, 0, 0, 0, 0, 0], [0, 0, 0, 0, 0, 0, 0, 0, 0, 0, 0, 0, 0, 0, 0, 0, 0, 0, 0, 0, 0, 0, 0, 0, 0, 0, 0, 0, 0, 0, 0, 0, 0, 0, 0, 0, 0, 0, 0, 0], [0, 0, 0, 0, 0, 0, 0, 0, 0, 0, 0, 0, 0, 0, 0, 0, 0, 0, 0, 0, 0, 0, 0, 0, 0, 0, 0, 0, 0, 0, 0, 0, 0, 0, 0, 0, 0, 0, 0, 0], [0, 0, 0, 0, 0, 0, 0, 0, 0, 0, 0, 0, 0, 0, 0, 0, 0, 0, 0, 0, 0, 0, 0, 0, 0, 0, 0, 0, 0, 0, 0, 0, 0, 0, 0, 0, 0, 0, 0, 0], [30, 38, 40, 41, 31, 34, 43, 43, 44, 50, 34, 43, 33, 35, 43, 44, 41, 40, 37, 34, 40, 35, 47, 37, 44, 31, 37, 35, 44, 43, 41, 38, 50, 38, 43, 36, 35, 45, 47, 47]], [[0, 0, 0, 0, 0, 0, 0, 0, 0, 0, 0, 0, 0, 0, 0, 0, 0, 0, 0, 0, 0, 0, 0, 0, 0, 0, 0, 0, 0, 0, 0, 0, 0, 0, 0, 0, 0, 0, 0, 0], [0, 0, 0, 0, 0, 0, 0, 0, 0, 0, 0, 0, 0, 0, 0, 0, 0, 0, 0, 0, 0, 0, 0, 0, 0, 0, 0, 0, 0, 0, 0, 0, 0, 0, 0, 0, 0, 0, 0, 0], [0, 0, 0, 0, 0, 0, 0, 0, 0, 0, 0, 0, 0, 0, 0, 0, 0, 0, 0, 0, 0, 0, 0, 0, 0, 0, 0, 0, 0, 0, 0, 0, 0, 0, 0, 0, 0, 0, 0, 0], [0, 0, 0, 0, 0, 0, 0, 0, 0, 0, 0, 0, 0, 0, 0, 0, 0, 0, 0, 0, 0, 0, 0, 0, 0, 0, 0, 0, 0, 0, 0, 0, 0, 0, 0, 0, 0, 0, 0, 0], [0, 0, 0, 0, 0, 0, 0, 0, 0, 0, 0, 0, 0, 0, 0, 0, 0, 0, 0, 0, 0, 0, 0, 0, 0, 0, 0, 0, 0, 0, 0, 0, 0, 0, 0, 0, 0, 0, 0, 0], [0, 0, 0, 0, 0, 0, 0, 0, 0, 0, 0, 0, 0, 0, 0, 0, 0, 0, 0, 0, 0, 0, 0, 0, 0, 0, 0, 0, 0, 0, 0, 0, 0, 0, 0, 0, 0, 0, 0, 0], [0, 0, 0, 0, 0, 0, 0, 0, 0, 0, 0, 0, 0, 0, 0, 0, 0, 0, 0, 0, 0, 0, 0, 0, 0, 0, 0, 0, 0, 0, 0, 0, 0, 0, 0, 0, 0, 0, 0, 0], [0, 0, 0, 0, 0, 0, 0, 0, 0, 0, 0, 0, 0, 0, 0, 0, 0, 0, 0, 0, 0, 0, 0, 0, 0, 0, 0, 0, 0, 0, 0, 0, 0, 0, 0, 0, 0, 0, 0, 0], [0, 0, 0, 0, 0, 0, 0, 0, 0, 0, 0, 0, 0, 0, 0, 0, 0, 0, 0, 0, 0, 0, 0, 0, 0, 0, 0, 0, 0, 0, 0, 0, 0, 0, 0, 0, 0, 0, 0, 0], [0, 0, 0, 0, 0, 0, 0, 0, 0, 0, 0, 0, 0, 0, 0, 0, 0, 0, 0, 0, 0, 0, 0, 0, 0, 0, 0, 0, 0, 0, 0, 0, 0, 0, 0, 0, 0, 0, 0, 0]]];

q = [[[5, 111], [11, 119], [18, 112], [13, 114], [21, 123], [19, 122], [25, 114], [14, 117], [9, 120], [22, 111], [12, 105], [20, 106], [21, 109], [8, 117], [20, 122], [11, 106], [14, 121], [10, 122], [10, 117], [11, 112], [23, 110], [5, 114], [21, 105], [16, 106], [22, 116], [6, 118], [16, 116], [24, 125], [18, 118], [15, 108], [13, 111], [10, 110], [15, 115], [20, 124], [7, 110], [13, 116], [13, 106], [24, 107], [24, 123], [22, 117]], [[18, 119], [25, 121], [6, 112], [15, 117], [15, 109], [17, 115], [25, 124], [20, 117], [9, 117], [21, 109], [24, 110], [18, 110], [8, 116], [21, 118], [23, 122], [20, 105], [12, 108], [10, 117], [11, 119], [17, 106], [17, 118], [16, 121], [12, 122], [8, 116], [19, 111], [19, 113], [24, 111], [14, 118], [12, 125], [23, 112], [6, 124], [17, 116], [19, 114], [13, 112], [21, 111], [24, 124], [12, 115], [13, 118], [22, 114], [12, 108]], [[24, 115], [20, 125], [14, 122], [15, 107], [18, 113], [14, 121], [24, 112], [12, 110], [9, 118], [21, 112], [19, 119], [20, 110], [10, 105], [23, 122], [8, 113], [23, 107], [22, 118], [6, 109], [11, 111], [23, 123], [9, 112], [11, 118], [12, 106], [25, 106], [13, 119], [21, 113], [18, 113], [7, 114], [16, 114], [25, 119], [7, 122], [24, 108], [25, 115], [5, 113], [21, 122], [24, 109], [14, 112], [10, 119], [15, 111], [6, 107]], [[22, 121], [8, 122], [11, 117], [22, 115], [6, 116], [6, 112], [20, 121], [12, 106], [13, 124], [13, 124], [18, 118], [18, 109], [13, 105], [13, 114], [5, 105], [9, 118], [12, 119], [22, 120], [5, 109], [16, 108], [11, 112], [19, 115], [7, 107], [19, 110], [16, 113], [7, 106], [8, 124], [8, 119], [24, 125], [8, 120], [18, 105], [19, 113], [17, 109], [21, 119], [24, 115], [17, 109], [9, 114], [23, 125], [19, 108], [12, 119]], [[22, 110], [6, 125], [21, 111], [14, 116], [12, 113], [20, 110], [9, 119], [19, 118], [15, 107], [7, 109], [21, 109], [25, 105], [21, 114], [25, 123], [11, 113], [19, 112], [19, 123], [25, 123], [11, 124], [9, 125], [5, 125], [9, 115], [15, 115], [12, 108], [13, 117], [10, 107], [6, 106], [21, 111], [13, 110], [9, 121], [20, 123], [23, 113], [19, 115], [11, 112], [20, 122], [7, 124], [17, 109], [20, 124], [16, 111], [9, 119]], [[17, 123], [22, 125], [24, 121], [6, 123], [13, 113], [15, 123], [11, 107], [16, 114], [20, 122], [6, 124], [21, 125], [22, 123], [12, 110], [25, 119], [14, 125], [6, 105], [15, 108], [12, 117], [13, 118], [5, 125], [14, 113], [10, 112], [5, 106], [21, 107], [20, 120], [23, 114], [19, 120], [7, 106], [5, 120], [10, 108], [8, 125], [13, 110], [18, 110], [14, 113], [16, 125], [9, 114], [8, 112], [9, 106], [17, 116], [9, 106]], [[5, 108], [14, 107], [25, 123], [20, 122], [18, 108], [13, 108], [24, 123], [13, 118], [22, 107], [7, 109], [25, 110], [13, 116], [9, 120], [15, 106], [9, 125], [19, 118], [12, 119], [8, 112], [11, 108], [6, 119], [14, 125], [16, 105], [25, 109], [19, 120], [24, 106], [11, 124], [5, 111], [25, 109], [24, 115], [7, 114], [19, 107], [20, 116], [14, 108], [24, 119], [11, 124], [21, 123], [12, 124], [6, 119], [5, 113], [18, 118]], [[7, 117], [14, 121], [5, 121], [25, 122], [14, 114], [20, 111], [25, 123], [18, 106], [14, 118], [12, 114], [20, 113], [18, 117], [17, 117], [7, 122], [15, 118], [6, 110], [25, 109], [5, 119], [13, 110], [23, 119], [24, 125], [25, 123], [13, 117], [18, 117], [14, 117], [18, 106], [5, 108], [12, 113], [20, 124], [6, 114], [12, 106], [8, 120], [25, 116], [19, 109], [19, 105], [9, 111], [24, 116], [8, 106], [21, 124], [22, 111]], [[11, 113], [10, 120], [24, 118], [25, 117], [20, 106], [21, 106], [20, 111], [21, 124], [11, 125], [20, 110], [10, 122], [9, 114], [13, 125], [17, 115], [21, 118], [18, 121], [16, 106], [6, 106], [21, 112], [18, 122], [21, 120], [25, 112], [11, 120], [7, 121], [20, 110], [21, 118], [22, 115], [7, 116], [15, 113], [11, 120], [14, 108], [15, 113], [21, 111], [22, 120], [10, 110], [12, 121], [7, 123], [14, 119], [9, 118], [14, 112]], [[19, 116], [21, 121], [20, 105], [16, 121], [10, 121], [25, 107], [22, 106], [7, 118], [6, 105], [17, 115], [17, 107], [22, 115], [23, 119], [17, 110], [20, 112], [18, 116], [24, 118], [24, 113], [15, 116], [15, 112], [10, 109], [14, 120], [11, 121], [7, 120], [9, 119], [23, 123], [6, 113], [13, 119], [23, 117], [23, 123], [23, 117], [20, 118], [14, 122], [8, 123], [10, 110], [14, 119], [10, 109], [21, 124], [8, 119], [7, 123]]];
Q = [[49, 366], [52, 370], [51, 366], [45, 368], [48, 370], [44, 371], [48, 368], [50, 369], [50, 371], [50, 372]];
